NAME : XML100_3376_09
DIMENSION : 101
NB_CLUSTERS : 4
CLUSTERING_ALG : DBSCAN
CLUSTERING_PARAMS : eps(150), minSamples(3)
CLUSTERS
1 0
2 1 3 5 6 7 8 9 12 13 15 16 17 20 21 22 25 26 30 31 32 36 37 38 39 47 48 50 51 52 54 55 56 59 60 63 64 65 67 69 70 73 74 75 77 78 79 81 82 85 86 88 89 90 91 92 93 94 97 100
3 2 4 11 14 18 24 27 29 33 35 40 41 42 43 45 46 49 53 57 61 62 66 71 72 80 84 87 95 96 98 99
4 10 19 23 28 34 44 58 68 76 83
EOF